g3 0 1 0	# problem d4n12R6R7d01d1
 12 12 1 0 6	# vars, constraints, objectives, ranges, eqns
 4 1	# nonlinear constraints, objectives
 0 0	# network constraints: nonlinear, linear
 12 12 12	# nonlinear vars in constraints, objectives, both
 0 0 0 1	# linear network variables; functions; arith, flags
 0 0 0 0 0	# discrete variables: binary, integer, nonlinear (b,c,o)
 144 12	# nonzeros in Jacobian, gradients
 0 0	# max name lengths: constraints, variables
 0 0 0 0 0	# common exprs: b,c,o,c1,o1
b
0 0.04 2.69
0 0.57 2.46
0 0.92 2.41
0 0.11 2.52
0 0.18 2.61
0 0.57 2.94
0 0.67 2.61
0 0.92 2.46
0 0.49 2.63
0 0.51 2.47
0 0.75 2.05
0 0.48 2.3
r
2 167.861
2 798.467
2 3726.57
2 201.804
4 96.193
4 64.115
4 88.931
4 85.205
4 45.679
4 97.011
2 112.077
2 55.913
C0
o54
11
o2
o2
n2.82
v1
v5
o2
o2
n1.41
v1
v7
o2
o2
n2.28
v1
v8
o2
o2
n1.2
v2
v4
o2
o2
n8.52
v2
v5
o16
o2
o2
n7.64
v2
v9
o2
o2
n1.79
v3
v9
o2
o2
n7.48
v4
v7
o16
o2
o2
n3.21
v5
v7
o2
o2
n5.57
v5
v11
o2
o2
n8.36
v9
v9
C1
o54
48
o2
o2
n5.96
v1
v5
o2
o2
n7.89
v1
v7
o2
o2
n3.48
v1
v8
o2
o2
n7.28
v2
v4
o2
o2
n9.37
v2
v5
o2
o2
n4.67
v2
v9
o2
o2
n7.32
v3
v9
o2
o2
n6.77
v4
v7
o2
o2
n9.02
v5
v7
o2
o2
n1.1
v5
v11
o2
o2
n3.69
v9
v9
o2
o2
o2
n4.47
v0
v0
v9
o2
o2
o2
n6.81
v0
v1
v6
o2
o2
o2
n3.89
v0
v2
v2
o2
o2
o2
n0.79
v0
v2
v11
o2
o2
o2
n5.22
v0
v3
v6
o2
o2
o2
n5.47
v0
v3
v9
o2
o2
o2
n9.94
v0
v7
v10
o2
o2
o2
n1.14
v0
v9
v10
o2
o2
o2
n5.19
v1
v1
v1
o2
o2
o2
n2.06
v1
v1
v4
o2
o2
o2
n7.65
v1
v1
v6
o2
o2
o2
n3.16
v1
v2
v2
o16
o2
o2
o2
n6.26
v1
v2
v3
o2
o2
o2
n7.73
v1
v4
v10
o2
o2
o2
n4.43
v1
v6
v11
o2
o2
o2
n9.05
v2
v3
v6
o2
o2
o2
n6.71
v2
v3
v10
o2
o2
o2
n3.63
v2
v4
v6
o2
o2
o2
n0.53
v2
v6
v8
o2
o2
o2
n8.88
v3
v3
v5
o2
o2
o2
n8.13
v3
v5
v11
o2
o2
o2
n3.18
v3
v7
v7
o2
o2
o2
n9.06
v3
v11
v11
o2
o2
o2
n0.93
v4
v4
v6
o2
o2
o2
n8.57
v4
v4
v7
o2
o2
o2
n0.56
v4
v4
v8
o2
o2
o2
n2.24
v4
v4
v9
o2
o2
o2
n8.3
v4
v9
v10
o2
o2
o2
n1.99
v5
v6
v10
o2
o2
o2
n5.39
v5
v7
v11
o2
o2
o2
n4.02
v5
v9
v9
o2
o2
o2
n1.76
v5
v11
v11
o16
o2
o2
o2
n3.87
v6
v7
v9
o2
o2
o2
n3.75
v6
v10
v10
o2
o2
o2
n8.81
v7
v10
v11
o2
o2
o2
n8.87
v8
v11
v11
o2
o2
o2
n3.16
v10
v10
v10
C2
o54
181
o2
o2
n8.97
v1
v5
o2
o2
n9.91
v1
v7
o2
o2
n6.5
v1
v8
o2
o2
n7.01
v2
v4
o2
o2
n7.32
v2
v5
o2
o2
n5.16
v2
v9
o16
o2
o2
n6.76
v3
v9
o2
o2
n0.42
v4
v7
o2
o2
n3.09
v5
v7
o2
o2
n9.51
v5
v11
o2
o2
n5.38
v9
v9
o2
o2
o2
n2.39
v0
v0
v9
o2
o2
o2
n9.78
v0
v1
v6
o2
o2
o2
n1.78
v0
v2
v2
o2
o2
o2
n7.19
v0
v2
v11
o2
o2
o2
n4.71
v0
v3
v6
o16
o2
o2
o2
n0.15
v0
v3
v9
o16
o2
o2
o2
n6.59
v0
v7
v10
o2
o2
o2
n1.58
v0
v9
v10
o2
o2
o2
n2.96
v1
v1
v1
o2
o2
o2
n3.44
v1
v1
v4
o2
o2
o2
n9.37
v1
v1
v6
o2
o2
o2
n7.87
v1
v2
v2
o2
o2
o2
n4.63
v1
v2
v3
o2
o2
o2
n8.85
v1
v4
v10
o2
o2
o2
n7.69
v1
v6
v11
o2
o2
o2
n6.95
v2
v3
v6
o2
o2
o2
n3.59
v2
v3
v10
o2
o2
o2
n5.26
v2
v4
v6
o2
o2
o2
n8.73
v2
v6
v8
o2
o2
o2
n9.07
v3
v3
v5
o2
o2
o2
n0.72
v3
v5
v11
o2
o2
o2
n7.22
v3
v7
v7
o2
o2
o2
n3.17
v3
v11
v11
o2
o2
o2
n7.98
v4
v4
v6
o2
o2
o2
n0.82
v4
v4
v7
o2
o2
o2
n7.15
v4
v4
v8
o2
o2
o2
n5.13
v4
v4
v9
o2
o2
o2
n1.29
v4
v9
v10
o2
o2
o2
n5.8
v5
v6
v10
o2
o2
o2
n3.85
v5
v7
v11
o2
o2
o2
n8.51
v5
v9
v9
o2
o2
o2
n7.04
v5
v11
v11
o2
o2
o2
n4.08
v6
v7
v9
o2
o2
o2
n7.21
v6
v10
v10
o2
o2
o2
n9.54
v7
v10
v11
o2
o2
o2
n6.58
v8
v11
v11
o16
o2
o2
o2
n6.25
v10
v10
v10
o2
o2
o2
o2
n9.16
v0
v0
v0
v5
o2
o2
o2
o2
n5.53
v0
v0
v0
v6
o16
o2
o2
o2
o2
n3.63
v0
v0
v2
v2
o2
o2
o2
o2
n6.99
v0
v0
v3
v5
o2
o2
o2
o2
n0.96
v0
v0
v3
v11
o2
o2
o2
o2
n9.94
v0
v0
v4
v6
o16
o2
o2
o2
o2
n9.7
v0
v0
v6
v7
o2
o2
o2
o2
n3.21
v0
v0
v7
v11
o2
o2
o2
o2
n6.62
v0
v0
v9
v9
o2
o2
o2
o2
n3.64
v0
v1
v1
v7
o2
o2
o2
o2
n5.63
v0
v1
v2
v5
o2
o2
o2
o2
n8.54
v0
v1
v2
v8
o2
o2
o2
o2
n2.65
v0
v1
v2
v10
o2
o2
o2
o2
n2.5
v0
v1
v3
v9
o2
o2
o2
o2
n9.45
v0
v1
v6
v8
o2
o2
o2
o2
n3.88
v0
v1
v8
v9
o2
o2
o2
o2
n4.03
v0
v1
v11
v11
o2
o2
o2
o2
n1.11
v0
v2
v3
v5
o2
o2
o2
o2
n0.53
v0
v2
v6
v6
o2
o2
o2
o2
n4.41
v0
v2
v9
v10
o2
o2
o2
o2
n6.44
v0
v2
v10
v10
o2
o2
o2
o2
n2.89
v0
v3
v3
v9
o2
o2
o2
o2
n9.87
v0
v3
v4
v10
o2
o2
o2
o2
n2.71
v0
v3
v5
v9
o2
o2
o2
o2
n4.74
v0
v3
v6
v7
o2
o2
o2
o2
n6.31
v0
v3
v6
v10
o2
o2
o2
o2
n6.73
v0
v3
v9
v9
o2
o2
o2
o2
n8.18
v0
v4
v5
v9
o2
o2
o2
o2
n7.69
v0
v4
v9
v9
o2
o2
o2
o2
n7.48
v0
v4
v10
v11
o2
o2
o2
o2
n1.49
v0
v5
v5
v5
o2
o2
o2
o2
n2.72
v0
v5
v6
v6
o2
o2
o2
o2
n8.93
v0
v5
v6
v11
o2
o2
o2
o2
n8.93
v0
v5
v7
v11
o2
o2
o2
o2
n4.73
v0
v6
v6
v6
o2
o2
o2
o2
n2.6
v0
v6
v6
v10
o2
o2
o2
o2
n4.21
v0
v6
v9
v9
o2
o2
o2
o2
n4.63
v0
v6
v11
v11
o2
o2
o2
o2
n2.61
v0
v7
v7
v9
o2
o2
o2
o2
n6.69
v0
v8
v8
v11
o2
o2
o2
o2
n4.85
v0
v8
v10
v10
o2
o2
o2
o2
n1.29
v1
v1
v1
v1
o2
o2
o2
o2
n8.44
v1
v1
v2
v4
o2
o2
o2
o2
n0.82
v1
v1
v2
v10
o2
o2
o2
o2
n7.49
v1
v1
v3
v5
o2
o2
o2
o2
n5.91
v1
v1
v4
v5
o2
o2
o2
o2
n0.54
v1
v1
v7
v7
o2
o2
o2
o2
n8.46
v1
v2
v2
v2
o2
o2
o2
o2
n0.04
v1
v2
v2
v7
o2
o2
o2
o2
n9.55
v1
v3
v9
v11
o2
o2
o2
o2
n6.36
v1
v4
v4
v8
o2
o2
o2
o2
n7.64
v1
v4
v4
v11
o16
o2
o2
o2
o2
n3.96
v1
v4
v5
v10
o2
o2
o2
o2
n7.37
v1
v4
v6
v10
o2
o2
o2
o2
n2.82
v1
v4
v10
v11
o16
o2
o2
o2
o2
n4.13
v1
v5
v5
v10
o2
o2
o2
o2
n2.65
v1
v5
v6
v7
o2
o2
o2
o2
n4.95
v1
v5
v7
v11
o2
o2
o2
o2
n2.9
v1
v5
v8
v10
o2
o2
o2
o2
n0.8
v1
v5
v9
v9
o2
o2
o2
o2
n6.25
v1
v5
v9
v11
o2
o2
o2
o2
n0.78
v1
v6
v6
v7
o2
o2
o2
o2
n8.51
v1
v6
v7
v7
o2
o2
o2
o2
n3.35
v1
v6
v8
v8
o2
o2
o2
o2
n2.6
v1
v8
v8
v11
o2
o2
o2
o2
n5.09
v1
v9
v9
v10
o2
o2
o2
o2
n9.59
v1
v9
v9
v11
o2
o2
o2
o2
n2.17
v2
v2
v3
v7
o2
o2
o2
o2
n4.44
v2
v2
v4
v6
o16
o2
o2
o2
o2
n4.88
v2
v2
v5
v6
o2
o2
o2
o2
n9.43
v2
v2
v7
v10
o2
o2
o2
o2
n0.55
v2
v2
v8
v8
o16
o2
o2
o2
o2
n2.91
v2
v2
v10
v10
o2
o2
o2
o2
n5.18
v2
v3
v4
v8
o2
o2
o2
o2
n6.33
v2
v3
v5
v6
o2
o2
o2
o2
n9.05
v2
v3
v5
v11
o16
o2
o2
o2
o2
n7.28
v2
v4
v5
v6
o2
o2
o2
o2
n6.64
v2
v4
v5
v7
o2
o2
o2
o2
n1.4
v2
v4
v6
v6
o2
o2
o2
o2
n6.2
v2
v4
v8
v10
o2
o2
o2
o2
n0.91
v2
v4
v8
v11
o2
o2
o2
o2
n9.26
v2
v6
v8
v11
o2
o2
o2
o2
n2.67
v2
v7
v7
v8
o2
o2
o2
o2
n5.39
v2
v7
v10
v10
o2
o2
o2
o2
n3.47
v2
v8
v8
v11
o2
o2
o2
o2
n2.49
v2
v9
v9
v10
o2
o2
o2
o2
n5.47
v3
v3
v4
v5
o2
o2
o2
o2
n8.05
v3
v3
v4
v8
o2
o2
o2
o2
n9.47
v3
v3
v5
v6
o2
o2
o2
o2
n1.48
v3
v3
v5
v9
o2
o2
o2
o2
n9.01
v3
v3
v6
v6
o2
o2
o2
o2
n3.05
v3
v3
v7
v10
o2
o2
o2
o2
n2.91
v3
v3
v9
v11
o16
o2
o2
o2
o2
n9.61
v3
v4
v6
v8
o2
o2
o2
o2
n9.23
v3
v6
v6
v7
o2
o2
o2
o2
n2.38
v3
v6
v11
v11
o2
o2
o2
o2
n8.32
v3
v7
v8
v9
o2
o2
o2
o2
n7.32
v3
v9
v10
v10
o16
o2
o2
o2
o2
n7.91
v4
v4
v5
v7
o16
o2
o2
o2
o2
n3.06
v4
v4
v5
v8
o2
o2
o2
o2
n7.93
v4
v4
v7
v8
o2
o2
o2
o2
n7.11
v4
v4
v8
v11
o2
o2
o2
o2
n8
v4
v4
v9
v11
o2
o2
o2
o2
n5.28
v4
v5
v6
v9
o2
o2
o2
o2
n5.22
v4
v5
v7
v11
o2
o2
o2
o2
n4.87
v4
v5
v9
v9
o2
o2
o2
o2
n5.27
v4
v6
v7
v11
o2
o2
o2
o2
n6.85
v4
v7
v9
v10
o2
o2
o2
o2
n4.56
v4
v7
v10
v10
o2
o2
o2
o2
n7.36
v4
v9
v10
v10
o2
o2
o2
o2
n6.12
v4
v10
v10
v10
o2
o2
o2
o2
n3.84
v5
v5
v7
v8
o2
o2
o2
o2
n7.26
v5
v5
v7
v9
o2
o2
o2
o2
n6.07
v5
v5
v8
v8
o2
o2
o2
o2
n1.67
v5
v5
v8
v10
o2
o2
o2
o2
n7.51
v5
v5
v9
v11
o2
o2
o2
o2
n3.76
v5
v6
v9
v10
o2
o2
o2
o2
n7.19
v5
v7
v9
v10
o2
o2
o2
o2
n8.16
v5
v8
v9
v11
o2
o2
o2
o2
n7.46
v5
v9
v10
v11
o2
o2
o2
o2
n2.11
v6
v6
v6
v7
o2
o2
o2
o2
n7.95
v6
v6
v6
v8
o16
o2
o2
o2
o2
n3.52
v6
v7
v9
v9
o2
o2
o2
o2
n1.05
v6
v7
v9
v10
o2
o2
o2
o2
n2.69
v6
v7
v10
v11
o16
o2
o2
o2
o2
n9.14
v6
v9
v9
v10
o2
o2
o2
o2
n0.22
v6
v10
v11
v11
o2
o2
o2
o2
n9.06
v7
v7
v9
v10
o2
o2
o2
o2
n9.22
v7
v7
v9
v11
o2
o2
o2
o2
n3.9
v7
v8
v8
v11
o2
o2
o2
o2
n4.39
v7
v11
v11
v11
o2
o2
o2
o2
n7.63
v8
v11
v11
v11
o2
o2
o2
o2
n5.95
v9
v9
v9
v9
C3
o54
11
o2
o2
n9.56
v1
v5
o2
o2
n3.08
v1
v7
o2
o2
n7.62
v1
v8
o16
o2
o2
n3.46
v2
v4
o2
o2
n8.15
v2
v5
o2
o2
n8.76
v2
v9
o16
o2
o2
n3.24
v3
v9
o2
o2
n4.77
v4
v7
o2
o2
n8.22
v5
v7
o2
o2
n6.71
v5
v11
o2
o2
n4.3
v9
v9
C4
n0
C5
n0
C6
n0
C7
n0
C8
n0
C9
n0
C10
n0
C11
n0
O0 0
o54
181
o2
o2
n1.08
v1
v5
o2
o2
n7.74
v1
v7
o2
o2
n6.8
v1
v8
o2
o2
n1.76
v2
v4
o2
o2
n2.88
v2
v5
o2
o2
n4.28
v2
v9
o2
o2
n9.91
v3
v9
o2
o2
n1.03
v4
v7
o2
o2
n1.92
v5
v7
o2
o2
n1.16
v5
v11
o2
o2
n7.73
v9
v9
o16
o2
o2
o2
n2.16
v0
v0
v9
o2
o2
o2
n7.6
v0
v1
v6
o2
o2
o2
n2.04
v0
v2
v2
o2
o2
o2
n5.39
v0
v2
v11
o2
o2
o2
n1.62
v0
v3
v6
o2
o2
o2
n1.7
v0
v3
v9
o2
o2
o2
n4.74
v0
v7
v10
o2
o2
o2
n8.08
v0
v9
v10
o2
o2
o2
n9.14
v1
v1
v1
o2
o2
o2
n7.85
v1
v1
v4
o2
o2
o2
n5.99
v1
v1
v6
o2
o2
o2
n3.64
v1
v2
v2
o2
o2
o2
n0.58
v1
v2
v3
o2
o2
o2
n7.16
v1
v4
v10
o2
o2
o2
n2.4
v1
v6
v11
o2
o2
o2
n1.31
v2
v3
v6
o2
o2
o2
n6.98
v2
v3
v10
o2
o2
o2
n0.14
v2
v4
v6
o2
o2
o2
n7.68
v2
v6
v8
o2
o2
o2
n6.78
v3
v3
v5
o2
o2
o2
n9.96
v3
v5
v11
o2
o2
o2
n4.85
v3
v7
v7
o2
o2
o2
n6.14
v3
v11
v11
o2
o2
o2
n3.48
v4
v4
v6
o2
o2
o2
n3.31
v4
v4
v7
o2
o2
o2
n1.36
v4
v4
v8
o2
o2
o2
n2.37
v4
v4
v9
o2
o2
o2
n0.12
v4
v9
v10
o16
o2
o2
o2
n0.82
v5
v6
v10
o2
o2
o2
n2.35
v5
v7
v11
o2
o2
o2
n7.27
v5
v9
v9
o2
o2
o2
n4.49
v5
v11
v11
o2
o2
o2
n0.4
v6
v7
v9
o2
o2
o2
n0.07
v6
v10
v10
o2
o2
o2
n0.23
v7
v10
v11
o2
o2
o2
n3.47
v8
v11
v11
o2
o2
o2
n4.44
v10
v10
v10
o2
o2
o2
o2
n9.51
v0
v0
v0
v5
o2
o2
o2
o2
n7.66
v0
v0
v0
v6
o2
o2
o2
o2
n9.34
v0
v0
v2
v2
o2
o2
o2
o2
n6.4
v0
v0
v3
v5
o2
o2
o2
o2
n7.76
v0
v0
v3
v11
o2
o2
o2
o2
n7.65
v0
v0
v4
v6
o2
o2
o2
o2
n2.34
v0
v0
v6
v7
o2
o2
o2
o2
n3.65
v0
v0
v7
v11
o2
o2
o2
o2
n9.73
v0
v0
v9
v9
o2
o2
o2
v0
v1
v1
v7
o2
o2
o2
o2
n9.39
v0
v1
v2
v5
o16
o2
o2
o2
o2
n6.6
v0
v1
v2
v8
o2
o2
o2
o2
n0.04
v0
v1
v2
v10
o2
o2
o2
o2
n8.44
v0
v1
v3
v9
o2
o2
o2
o2
n9.22
v0
v1
v6
v8
o2
o2
o2
o2
n4.01
v0
v1
v8
v9
o2
o2
o2
o2
n1.19
v0
v1
v11
v11
o2
o2
o2
o2
n4.06
v0
v2
v3
v5
o2
o2
o2
o2
n3.58
v0
v2
v6
v6
o2
o2
o2
o2
n4.64
v0
v2
v9
v10
o2
o2
o2
o2
n7.97
v0
v2
v10
v10
o2
o2
o2
o2
n5.11
v0
v3
v3
v9
o2
o2
o2
o2
n4.84
v0
v3
v4
v10
o2
o2
o2
o2
n5.07
v0
v3
v5
v9
o16
o2
o2
o2
o2
n8.12
v0
v3
v6
v7
o2
o2
o2
o2
n7.91
v0
v3
v6
v10
o2
o2
o2
o2
n9.72
v0
v3
v9
v9
o2
o2
o2
o2
n3.81
v0
v4
v5
v9
o2
o2
o2
o2
n9.25
v0
v4
v9
v9
o2
o2
o2
o2
n0.11
v0
v4
v10
v11
o2
o2
o2
o2
n9.38
v0
v5
v5
v5
o2
o2
o2
o2
n1.66
v0
v5
v6
v6
o2
o2
o2
o2
n2.01
v0
v5
v6
v11
o2
o2
o2
o2
n9.18
v0
v5
v7
v11
o2
o2
o2
o2
n5.68
v0
v6
v6
v6
o2
o2
o2
o2
n8.29
v0
v6
v6
v10
o2
o2
o2
o2
n9.48
v0
v6
v9
v9
o2
o2
o2
o2
n7.09
v0
v6
v11
v11
o16
o2
o2
o2
o2
n3.75
v0
v7
v7
v9
o2
o2
o2
o2
n5.11
v0
v8
v8
v11
o2
o2
o2
o2
n2.89
v0
v8
v10
v10
o2
o2
o2
o2
n1.34
v1
v1
v1
v1
o2
o2
o2
o2
n0.72
v1
v1
v2
v4
o2
o2
o2
o2
n4.36
v1
v1
v2
v10
o16
o2
o2
o2
o2
n3.45
v1
v1
v3
v5
o2
o2
o2
o2
n2.14
v1
v1
v4
v5
o2
o2
o2
o2
n0.83
v1
v1
v7
v7
o2
o2
o2
o2
n4.48
v1
v2
v2
v2
o2
o2
o2
o2
n0.6
v1
v2
v2
v7
o2
o2
o2
o2
n5.91
v1
v3
v9
v11
o2
o2
o2
o2
n6.67
v1
v4
v4
v8
o16
o2
o2
o2
o2
n1.7
v1
v4
v4
v11
o2
o2
o2
o2
n6.34
v1
v4
v5
v10
o2
o2
o2
o2
n5.02
v1
v4
v6
v10
o16
o2
o2
o2
o2
n6.74
v1
v4
v10
v11
o2
o2
o2
o2
n7.87
v1
v5
v5
v10
o2
o2
o2
o2
n5.98
v1
v5
v6
v7
o2
o2
o2
o2
n3.73
v1
v5
v7
v11
o2
o2
o2
o2
n9.22
v1
v5
v8
v10
o2
o2
o2
o2
n4.61
v1
v5
v9
v9
o2
o2
o2
o2
n4.99
v1
v5
v9
v11
o16
o2
o2
o2
o2
n0.45
v1
v6
v6
v7
o2
o2
o2
o2
n2.04
v1
v6
v7
v7
o2
o2
o2
o2
n3.61
v1
v6
v8
v8
o2
o2
o2
o2
n2.18
v1
v8
v8
v11
o16
o2
o2
o2
o2
n6.2
v1
v9
v9
v10
o2
o2
o2
o2
n9.15
v1
v9
v9
v11
o2
o2
o2
o2
n3.26
v2
v2
v3
v7
o2
o2
o2
o2
n9.14
v2
v2
v4
v6
o2
o2
o2
o2
n9.35
v2
v2
v5
v6
o2
o2
o2
o2
n3.05
v2
v2
v7
v10
o2
o2
o2
o2
n1.53
v2
v2
v8
v8
o2
o2
o2
o2
n5.88
v2
v2
v10
v10
o2
o2
o2
o2
n6.56
v2
v3
v4
v8
o2
o2
o2
o2
n3.6
v2
v3
v5
v6
o2
o2
o2
o2
n4.98
v2
v3
v5
v11
o2
o2
o2
o2
n2.73
v2
v4
v5
v6
o2
o2
o2
o2
n0.05
v2
v4
v5
v7
o2
o2
o2
o2
n3.04
v2
v4
v6
v6
o16
o2
o2
o2
o2
n4.23
v2
v4
v8
v10
o2
o2
o2
o2
n8.54
v2
v4
v8
v11
o2
o2
o2
o2
n1.08
v2
v6
v8
v11
o2
o2
o2
o2
n7.29
v2
v7
v7
v8
o2
o2
o2
o2
n5.45
v2
v7
v10
v10
o2
o2
o2
o2
n5.07
v2
v8
v8
v11
o2
o2
o2
o2
n9.61
v2
v9
v9
v10
o2
o2
o2
o2
n3.49
v3
v3
v4
v5
o2
o2
o2
o2
n8.3
v3
v3
v4
v8
o2
o2
o2
o2
n7.66
v3
v3
v5
v6
o2
o2
o2
o2
n0.37
v3
v3
v5
v9
o2
o2
o2
o2
n3.8
v3
v3
v6
v6
o2
o2
o2
o2
n9.98
v3
v3
v7
v10
o2
o2
o2
o2
n2.15
v3
v3
v9
v11
o2
o2
o2
o2
n5.01
v3
v4
v6
v8
o2
o2
o2
o2
n5.39
v3
v6
v6
v7
o2
o2
o2
o2
n5.6
v3
v6
v11
v11
o2
o2
o2
o2
n8.02
v3
v7
v8
v9
o2
o2
o2
o2
n0.62
v3
v9
v10
v10
o16
o2
o2
o2
o2
n6.81
v4
v4
v5
v7
o2
o2
o2
o2
n4.78
v4
v4
v5
v8
o2
o2
o2
o2
n7.85
v4
v4
v7
v8
o2
o2
o2
o2
n4.42
v4
v4
v8
v11
o2
o2
o2
o2
n0.43
v4
v4
v9
v11
o2
o2
o2
o2
n4.49
v4
v5
v6
v9
o2
o2
o2
o2
n2.94
v4
v5
v7
v11
o2
o2
o2
o2
n4.79
v4
v5
v9
v9
o2
o2
o2
o2
n1.33
v4
v6
v7
v11
o2
o2
o2
o2
n8.17
v4
v7
v9
v10
o2
o2
o2
o2
n5.24
v4
v7
v10
v10
o2
o2
o2
o2
n8.45
v4
v9
v10
v10
o2
o2
o2
o2
n2.26
v4
v10
v10
v10
o2
o2
o2
o2
n1.07
v5
v5
v7
v8
o2
o2
o2
o2
n5.52
v5
v5
v7
v9
o2
o2
o2
o2
n3.96
v5
v5
v8
v8
o2
o2
o2
o2
n4.99
v5
v5
v8
v10
o2
o2
o2
o2
n1.85
v5
v5
v9
v11
o2
o2
o2
o2
n7.78
v5
v6
v9
v10
o16
o2
o2
o2
o2
n1.42
v5
v7
v9
v10
o2
o2
o2
o2
n7.79
v5
v8
v9
v11
o2
o2
o2
o2
n0.44
v5
v9
v10
v11
o2
o2
o2
o2
n9.91
v6
v6
v6
v7
o2
o2
o2
o2
n8.49
v6
v6
v6
v8
o2
o2
o2
o2
n9.25
v6
v7
v9
v9
o2
o2
o2
o2
n2.15
v6
v7
v9
v10
o2
o2
o2
o2
n0.59
v6
v7
v10
v11
o2
o2
o2
o2
n2.57
v6
v9
v9
v10
o2
o2
o2
o2
n8.35
v6
v10
v11
v11
o2
o2
o2
o2
n7.99
v7
v7
v9
v10
o2
o2
o2
o2
n2.51
v7
v7
v9
v11
o2
o2
o2
o2
n9.32
v7
v8
v8
v11
o2
o2
o2
o2
n0.69
v7
v11
v11
v11
o2
o2
o2
o2
n1.3
v8
v11
v11
v11
o2
o2
o2
o2
n1.72
v9
v9
v9
v9
k11
12
24
36
48
60
72
84
96
108
120
132
J0 12
0 5.23
1 1.41
2 0.67
3 -1.9
4 7.75
5 9.07
6 8.54
7 7.62
8 9.73
9 9.01
10 5.61
11 0.65
J1 12
0 9.27
1 9.46
2 1.13
3 1.65
4 7.55
5 3.54
6 6.26
7 7.39
8 0.56
9 9.24
10 2.92
11 4.3
J2 12
0 5.36
1 6.52
2 -9.3
3 0.45
4 7.13
5 3.87
6 6.45
7 2.37
8 2.79
9 1.94
10 5.29
11 2.24
J3 12
0 0.76
1 0.57
2 8.87
3 8.58
4 5.38
5 -6.22
6 0.34
7 2.44
8 -1.42
9 9.89
10 5.9
11 5.6
J4 12
0 5.77
1 0.58
2 3.08
3 9.2
4 4.32
5 8.8
6 6.89
7 8.32
8 3.38
9 7.28
10 3.34
11 1.86
J5 12
0 3.21
1 1.22
2 2.37
3 6.61
4 -5.44
5 5.96
6 4.58
7 3.65
8 1.38
9 6.27
10 6.27
11 6.06
J6 12
0 8.16
1 8.04
2 8.81
3 4.57
4 0.26
5 1.78
6 6.3
7 4.08
8 0.55
9 3.48
10 7.94
11 5.08
J7 12
0 7.62
1 1.49
2 3.09
3 5.08
4 1.09
5 9.72
6 2.33
7 8.13
8 2.9
9 6.5
10 5.81
11 1.61
J8 12
0 -7.95
1 7.9
2 2.36
3 4.28
4 2.02
5 1.51
6 0.53
7 9.69
8 2
9 5.67
10 -5.52
11 6.08
J9 12
0 0.14
1 2.04
2 9.5
3 7.89
4 2.04
5 6.18
6 6.06
7 9.71
8 8.62
9 2.3
10 0.26
11 7.38
J10 12
0 4.92
1 9.75
2 4.47
3 9.34
4 4.76
5 9.41
6 9.92
7 4.74
8 1.59
9 7.84
10 2.53
11 4.12
J11 12
0 2.75
1 1.15
2 -6.37
3 1.15
4 4.89
5 6.22
6 2.82
7 6.84
8 5.76
9 3.78
10 3.12
11 4.75
G0 12
0 8.65
1 2.09
2 7.5
3 4.31
4 0.95
5 7.38
6 -3.18
7 5.81
8 -6.37
9 3.6
10 7.08
11 4.52
